(set-info :smt-lib-version 2.6)
(set-logic QF_NIA)
(set-info :source |
Generated by: Cristina Borralleras, Daniel Larraz, Albert Oliveras, Enric Rodriguez-Carbonell, Albert Rubio
Generated on: 2017-04-27
Generator: VeryMax
Application: Termination proving
Target solver: barcelogic
|)
(set-info :license "https://creativecommons.org/licenses/by/4.0/")
(set-info :category "industrial")
(set-info :status unknown)
(declare-fun Nl14main_l1 () Int)
(declare-fun Nl14main_m1 () Int)
(declare-fun Nl14main_a1 () Int)
(declare-fun Nl14main_b1 () Int)
(declare-fun Nl14main_l2 () Int)
(declare-fun Nl14main_m2 () Int)
(declare-fun Nl14main_a2 () Int)
(declare-fun Nl14main_b2 () Int)
(declare-fun lam0n0 () Int)
(declare-fun lam0n1 () Int)
(declare-fun lam0n2 () Int)
(declare-fun lam0n3 () Int)
(declare-fun Nl14CT1 () Int)
(declare-fun Nl14CT2 () Int)
(declare-fun lam1n0 () Int)
(declare-fun lam1n1 () Int)
(declare-fun lam1n2 () Int)
(declare-fun lam1n3 () Int)
(declare-fun lam2n0 () Int)
(declare-fun lam2n1 () Int)
(declare-fun lam2n2 () Int)
(declare-fun lam2n3 () Int)
(declare-fun lam3n0 () Int)
(declare-fun lam3n1 () Int)
(declare-fun lam3n2 () Int)
(declare-fun lam3n3 () Int)
(declare-fun lam4n0 () Int)
(declare-fun lam4n1 () Int)
(declare-fun lam4n2 () Int)
(declare-fun lam4n3 () Int)
(declare-fun main_l () Int)
(declare-fun main_b () Int)
(declare-fun main_a () Int)
(declare-fun main_i () Int)
(declare-fun main_j () Int)
(declare-fun main_k () Int)
(declare-fun lam5n0 () Int)
(declare-fun lam5n1 () Int)
(declare-fun lam6n0 () Int)
(declare-fun lam6n1 () Int)
(assert ( and ( <= ( - 1 ) Nl14main_l1 ) ( <= Nl14main_l1 1 ) ( <= ( - 1 ) Nl14main_m1 ) ( <= Nl14main_m1 1 ) ( <= ( - 1 ) Nl14main_a1 ) ( <= Nl14main_a1 1 ) ( <= ( - 1 ) Nl14main_b1 ) ( <= Nl14main_b1 1 ) ( <= ( - 1 ) Nl14main_l2 ) ( <= Nl14main_l2 1 ) ( <= ( - 1 ) Nl14main_m2 ) ( <= Nl14main_m2 1 ) ( <= ( - 1 ) Nl14main_a2 ) ( <= Nl14main_a2 1 ) ( <= ( - 1 ) Nl14main_b2 ) ( <= Nl14main_b2 1 ) ))
(assert ( or ( and ( >= lam0n0 0 ) ( >= lam0n1 0 ) ( >= lam0n2 0 ) ( >= lam0n3 0 ) ( > ( + ( * 1 lam0n0 ) ( * ( - 1 ) lam0n1 ) ( * Nl14CT1 lam0n2 ) ( * Nl14CT2 lam0n3 ) ( - 1 ) ) 0 ) ( = ( + ( * 1 lam0n1 ) ( * Nl14main_l1 lam0n2 ) ( * Nl14main_l2 lam0n3 ) ) 0 ) ( = ( + ( * ( - 1 ) lam0n0 ) ( * Nl14main_m1 lam0n2 ) ( * Nl14main_m2 lam0n3 ) ) 0 ) ( = ( + ( * ( - 1 ) lam0n1 ) ( * Nl14main_a1 lam0n2 ) ( * Nl14main_a2 lam0n3 ) ) 0 ) ( = ( + ( * ( - 1 ) lam0n1 ) ( * Nl14main_b1 lam0n2 ) ( * Nl14main_b2 lam0n3 ) ) 0 ) ) ( and ( >= lam1n0 0 ) ( >= lam1n1 0 ) ( >= lam1n2 0 ) ( >= lam1n3 0 ) ( > ( + ( * 1 lam1n0 ) ( * ( - 1 ) lam1n1 ) ( * Nl14CT1 lam1n2 ) ( * Nl14CT2 lam1n3 ) ( - 1 Nl14CT1 ) ) 0 ) ( = ( + ( * 1 lam1n1 ) ( * Nl14main_l1 lam1n2 ) ( * Nl14main_l2 lam1n3 ) ( - ( + 0 Nl14main_l1 ) ) ) 0 ) ( = ( + ( * ( - 1 ) lam1n0 ) ( * Nl14main_m1 lam1n2 ) ( * Nl14main_m2 lam1n3 ) ( - ( + 0 Nl14main_m1 ) ) ) 0 ) ( = ( + ( * ( - 1 ) lam1n1 ) ( * Nl14main_a1 lam1n2 ) ( * Nl14main_a2 lam1n3 ) ( - ( + 0 Nl14main_a1 ) ) ) 0 ) ( = ( + ( * ( - 1 ) lam1n1 ) ( * Nl14main_b1 lam1n2 ) ( * Nl14main_b2 lam1n3 ) ( - ( + 0 Nl14main_b1 ) ) ) 0 ) ) ))
(assert ( or ( and ( >= lam0n0 0 ) ( >= lam0n1 0 ) ( >= lam0n2 0 ) ( >= lam0n3 0 ) ( > ( + ( * 1 lam0n0 ) ( * ( - 1 ) lam0n1 ) ( * Nl14CT1 lam0n2 ) ( * Nl14CT2 lam0n3 ) ( - 1 ) ) 0 ) ( = ( + ( * 1 lam0n1 ) ( * Nl14main_l1 lam0n2 ) ( * Nl14main_l2 lam0n3 ) ) 0 ) ( = ( + ( * ( - 1 ) lam0n0 ) ( * Nl14main_m1 lam0n2 ) ( * Nl14main_m2 lam0n3 ) ) 0 ) ( = ( + ( * ( - 1 ) lam0n1 ) ( * Nl14main_a1 lam0n2 ) ( * Nl14main_a2 lam0n3 ) ) 0 ) ( = ( + ( * ( - 1 ) lam0n1 ) ( * Nl14main_b1 lam0n2 ) ( * Nl14main_b2 lam0n3 ) ) 0 ) ) ( and ( >= lam2n0 0 ) ( >= lam2n1 0 ) ( >= lam2n2 0 ) ( >= lam2n3 0 ) ( > ( + ( * 1 lam2n0 ) ( * ( - 1 ) lam2n1 ) ( * Nl14CT1 lam2n2 ) ( * Nl14CT2 lam2n3 ) ( - 1 Nl14CT2 ) ) 0 ) ( = ( + ( * 1 lam2n1 ) ( * Nl14main_l1 lam2n2 ) ( * Nl14main_l2 lam2n3 ) ( - ( + 0 Nl14main_l2 ) ) ) 0 ) ( = ( + ( * ( - 1 ) lam2n0 ) ( * Nl14main_m1 lam2n2 ) ( * Nl14main_m2 lam2n3 ) ( - ( + 0 Nl14main_m2 ) ) ) 0 ) ( = ( + ( * ( - 1 ) lam2n1 ) ( * Nl14main_a1 lam2n2 ) ( * Nl14main_a2 lam2n3 ) ( - ( + 0 Nl14main_a2 ) ) ) 0 ) ( = ( + ( * ( - 1 ) lam2n1 ) ( * Nl14main_b1 lam2n2 ) ( * Nl14main_b2 lam2n3 ) ( - ( + 0 Nl14main_b2 ) ) ) 0 ) ) ))
(assert ( and ( <= ( + 1 main_l ( * ( - 1 ) main_b ) ) 0 ) ( <= ( + ( - 1 ) main_l ( * ( - 1 ) main_a ) ( * ( - 1 ) main_b ) ) 0 ) ( not ( <= ( + 1001 main_i main_j main_k main_l ) 0 ) ) ( <= ( + ( - 4 ) ( * ( - 1 ) main_i ) ( * ( - 1 ) main_j ) ( * ( - 1 ) main_k ) ( * ( - 2 ) main_l ) main_b ) 0 ) ( <= ( + ( + Nl14CT1 ( * Nl14main_m1 1000 ) ) ( * ( + 0 ( * Nl14main_m1 1 ) ) main_i ) ( * ( + 0 ( * Nl14main_m1 1 ) ) main_j ) ( * ( + 0 ( * Nl14main_m1 1 ) ) main_k ) ( * ( + ( + 0 Nl14main_l1 ) ( * Nl14main_m1 1 ) ) main_l ) ( * ( + 0 Nl14main_a1 ) main_a ) ( * ( + 0 Nl14main_b1 ) main_b ) ) 0 ) ( <= ( + ( + Nl14CT2 ( * Nl14main_m2 1000 ) ) ( * ( + 0 ( * Nl14main_m2 1 ) ) main_i ) ( * ( + 0 ( * Nl14main_m2 1 ) ) main_j ) ( * ( + 0 ( * Nl14main_m2 1 ) ) main_k ) ( * ( + ( + 0 Nl14main_l2 ) ( * Nl14main_m2 1 ) ) main_l ) ( * ( + 0 Nl14main_a2 ) main_a ) ( * ( + 0 Nl14main_b2 ) main_b ) ) 0 ) ))
(assert ( or ( or ( and ( >= lam5n0 0 ) ( >= lam5n1 0 ) ( > ( + ( * Nl14CT1 lam5n0 ) ( * Nl14CT2 lam5n1 ) ( - 1 ) ) 0 ) ( = ( + ( * Nl14main_l1 lam5n0 ) ( * Nl14main_l2 lam5n1 ) ) 0 ) ( = ( + ( * Nl14main_m1 lam5n0 ) ( * Nl14main_m2 lam5n1 ) ) 0 ) ( = ( + ( * Nl14main_a1 lam5n0 ) ( * Nl14main_a2 lam5n1 ) ) 0 ) ( = ( + ( * Nl14main_b1 lam5n0 ) ( * Nl14main_b2 lam5n1 ) ) 0 ) ) ( and ( >= lam6n0 0 ) ( >= lam6n1 0 ) ( > ( + ( * Nl14CT1 lam6n0 ) ( * Nl14CT2 lam6n1 ) ) 0 ) ( = ( + ( * Nl14main_l1 lam6n0 ) ( * Nl14main_l2 lam6n1 ) ) 0 ) ( = ( + ( * Nl14main_m1 lam6n0 ) ( * Nl14main_m2 lam6n1 ) ( - 1 ) ) 0 ) ( = ( + ( * Nl14main_a1 lam6n0 ) ( * Nl14main_a2 lam6n1 ) ) 0 ) ( = ( + ( * Nl14main_b1 lam6n0 ) ( * Nl14main_b2 lam6n1 ) ) 0 ) ) ) ( and ( and ( <= ( + 1 main_l ( * ( - 1 ) main_b ) ) 0 ) ( <= ( + ( - 1 ) main_l ( * ( - 1 ) main_a ) ( * ( - 1 ) main_b ) ) 0 ) ( not ( <= ( + 1001 main_i main_j main_k main_l ) 0 ) ) ( <= ( + ( - 4 ) ( * ( - 1 ) main_i ) ( * ( - 1 ) main_j ) ( * ( - 1 ) main_k ) ( * ( - 2 ) main_l ) main_b ) 0 ) ( <= ( + ( + Nl14CT1 ( * Nl14main_m1 1000 ) ) ( * ( + 0 ( * Nl14main_m1 1 ) ) main_i ) ( * ( + 0 ( * Nl14main_m1 1 ) ) main_j ) ( * ( + 0 ( * Nl14main_m1 1 ) ) main_k ) ( * ( + ( + 0 Nl14main_l1 ) ( * Nl14main_m1 1 ) ) main_l ) ( * ( + 0 Nl14main_a1 ) main_a ) ( * ( + 0 Nl14main_b1 ) main_b ) ) 0 ) ( <= ( + ( + Nl14CT2 ( * Nl14main_m2 1000 ) ) ( * ( + 0 ( * Nl14main_m2 1 ) ) main_i ) ( * ( + 0 ( * Nl14main_m2 1 ) ) main_j ) ( * ( + 0 ( * Nl14main_m2 1 ) ) main_k ) ( * ( + ( + 0 Nl14main_l2 ) ( * Nl14main_m2 1 ) ) main_l ) ( * ( + 0 Nl14main_a2 ) main_a ) ( * ( + 0 Nl14main_b2 ) main_b ) ) 0 ) ) ( and ( >= lam0n0 0 ) ( >= lam0n1 0 ) ( >= lam0n2 0 ) ( >= lam0n3 0 ) ( > ( + ( * 1 lam0n0 ) ( * ( - 1 ) lam0n1 ) ( * Nl14CT1 lam0n2 ) ( * Nl14CT2 lam0n3 ) ( - 1 ) ) 0 ) ( = ( + ( * 1 lam0n1 ) ( * Nl14main_l1 lam0n2 ) ( * Nl14main_l2 lam0n3 ) ) 0 ) ( = ( + ( * ( - 1 ) lam0n0 ) ( * Nl14main_m1 lam0n2 ) ( * Nl14main_m2 lam0n3 ) ) 0 ) ( = ( + ( * ( - 1 ) lam0n1 ) ( * Nl14main_a1 lam0n2 ) ( * Nl14main_a2 lam0n3 ) ) 0 ) ( = ( + ( * ( - 1 ) lam0n1 ) ( * Nl14main_b1 lam0n2 ) ( * Nl14main_b2 lam0n3 ) ) 0 ) ) ) ))
(check-sat)
(exit)
